10 45
1 2 11
1 3 27
1 4 6
1 5 29
1 6 17
1 7 2
1 8 3
1 9 3
1 10 12
2 3 16
2 4 22
2 5 17
2 6 20
2 7 5
2 8 13
2 9 25
2 10 2
3 4 11
3 5 22
3 6 10
3 7 0
3 8 21
3 9 8
3 10 12
4 5 13
4 6 18
4 7 25
4 8 3
4 9 4
4 10 3
5 6 1
5 7 23
5 8 0
5 9 18
5 10 22
6 7 18
6 8 16
6 9 20
6 10 6
7 8 27
7 9 13
7 10 9
8 9 13
8 10 16
9 10 0
